5	6	7	8	9	10	11	12	13	14	15	16	17	18	19	20	21	22	23	24
	26	1	5	1	5	0	3	3	3	3	0	0	0	3	0	1	1	3	14
	37	9	13	9	13	9	9	9	9	8	4	4	4	7	4	7	7	8	29
	45	17	21	17	21	15	15	15	15	15	8	8	8	11	7	13	13	14	48
	53	25	29	25	29	21	21	21	21	20	12	12	12	15	13	19	18	22
		33	37	33	36	27	27	27	27	27	16	16	16	19	19	25	26	30
		41	45	41	45	33	33	33	33	32	20	20	20	25	25	31	34	38
		49	53	49	53	39	39	39	39	36	24	24	24	31	31	37	42	46
		57		57		45	45	45	45	40	28	28	28	37	37	42	50	59
						51	51	51	50	44	32	32	31	43	43	49	58
						57	57	57	57	48	36	36	36	49	49	54
										51	40	40	40	55	55
										56	44	44	43
											48	48	48
											52	52	52
											56	56	56
													59